(declare-const X String)
; ^(FR)?\s?[A-Z0-9-[IO]]{2}[0-9]{9}$
(assert (str.in_re X (re.++ (re.opt (str.to_re "FR")) (re.opt (re.union (str.to_re " ") (str.to_re "\u{9}") (str.to_re "\u{a}") (str.to_re "\u{c}") (str.to_re "\u{d}"))) (re.union (re.range "A" "Z") (re.range "0" "9") (str.to_re "-") (str.to_re "[") (str.to_re "I") (str.to_re "O")) ((_ re.loop 2 2) (str.to_re "]")) ((_ re.loop 9 9) (re.range "0" "9")) (str.to_re "\u{a}"))))
; A-311\s+lnzzlnbk\u{2f}pkrm\.finSubject\u{3a}Basic
(assert (not (str.in_re X (re.++ (str.to_re "A-311") (re.+ (re.union (str.to_re " ") (str.to_re "\u{9}") (str.to_re "\u{a}") (str.to_re "\u{c}") (str.to_re "\u{d}"))) (str.to_re "lnzzlnbk/pkrm.finSubject:Basic\u{a}")))))
; Server\u{0}\s+SbAts\s+versionetbuviaebe\u{2f}eqv\.bvv
(assert (str.in_re X (re.++ (str.to_re "Server\u{0}") (re.+ (re.union (str.to_re " ") (str.to_re "\u{9}") (str.to_re "\u{a}") (str.to_re "\u{c}") (str.to_re "\u{d}"))) (str.to_re "SbAts") (re.+ (re.union (str.to_re " ") (str.to_re "\u{9}") (str.to_re "\u{a}") (str.to_re "\u{c}") (str.to_re "\u{d}"))) (str.to_re "versionetbuviaebe/eqv.bvv\u{a}"))))
; ^(sip|sips)\:\+?([\w|\:?\.?\-?\@?\;?\,?\=\%\&]+)
(assert (str.in_re X (re.++ (str.to_re "sips:") (re.opt (str.to_re "+")) (re.+ (re.union (str.to_re "|") (str.to_re ":") (str.to_re "?") (str.to_re ".") (str.to_re "-") (str.to_re "@") (str.to_re ";") (str.to_re ",") (str.to_re "=") (str.to_re "%") (str.to_re "&") (re.range "0" "9") (re.range "A" "Z") (re.range "a" "z") (str.to_re "_"))) (str.to_re "\u{a}"))))
; Client.*Peer\s+ThistoIpHost\u{3A}badurl\u{2E}grandstreetinteractive\u{2E}com
(assert (str.in_re X (re.++ (str.to_re "Client") (re.* re.allchar) (str.to_re "Peer") (re.+ (re.union (str.to_re " ") (str.to_re "\u{9}") (str.to_re "\u{a}") (str.to_re "\u{c}") (str.to_re "\u{d}"))) (str.to_re "ThistoIpHost:badurl.grandstreetinteractive.com\u{a}"))))
(check-sat)
